c Created with the Wolfram Language : www.wolfram.com
c 
p edge 70 495
e 2 3
e 1 6
e 5 6
e 4 9
e 3 10
e 8 12
e 10 12
e 2 13
e 5 13
e 12 13
e 3 15
e 5 15
e 7 15
e 8 15
e 11 15
e 4 16
e 5 16
e 7 16
e 8 16
e 12 16
e 14 16
e 2 17
e 3 17
e 13 18
e 16 18
e 4 19
e 12 19
e 15 19
e 11 20
e 12 20
e 14 20
e 16 20
e 17 20
e 18 20
e 2 21
e 18 21
e 5 22
e 6 22
e 7 22
e 9 22
e 14 22
e 16 22
e 20 22
e 12 23
e 16 23
e 22 23
e 1 24
e 3 24
e 4 24
e 6 24
e 21 24
e 22 24
e 11 25
e 14 25
e 15 25
e 17 25
e 18 25
e 20 25
e 15 26
e 21 26
e 23 26
e 1 27
e 3 27
e 9 27
e 10 27
e 19 27
e 20 27
e 24 27
e 16 28
e 8 29
e 14 29
e 15 29
e 18 29
e 27 29
e 5 30
e 6 30
e 8 30
e 10 30
e 24 30
e 2 31
e 11 31
e 12 31
e 14 31
e 21 31
e 22 31
e 24 31
e 29 31
e 10 32
e 22 32
e 24 32
e 31 32
e 2 33
e 3 33
e 12 33
e 14 33
e 26 33
e 28 33
e 30 33
e 6 34
e 13 34
e 17 34
e 19 34
e 21 34
e 22 34
e 24 34
e 29 34
e 1 35
e 20 35
e 34 35
e 2 36
e 3 36
e 19 36
e 24 36
e 32 36
e 33 36
e 35 36
e 3 37
e 4 37
e 11 37
e 21 37
e 22 37
e 32 37
e 1 38
e 9 38
e 13 38
e 16 38
e 22 38
e 26 38
e 31 38
e 32 38
e 7 39
e 13 39
e 18 39
e 21 39
e 22 39
e 26 39
e 36 39
e 38 39
e 11 40
e 15 40
e 17 40
e 19 40
e 27 40
e 28 40
e 34 40
e 1 41
e 2 41
e 8 41
e 10 41
e 12 41
e 17 41
e 23 41
e 28 41
e 30 41
e 31 41
e 32 41
e 37 41
e 39 41
e 12 42
e 18 42
e 19 42
e 23 42
e 24 42
e 26 42
e 27 42
e 29 42
e 31 42
e 35 42
e 40 42
e 1 43
e 3 43
e 4 43
e 14 43
e 19 43
e 29 43
e 30 43
e 39 43
e 40 43
e 41 43
e 5 44
e 7 44
e 11 44
e 12 44
e 13 44
e 14 44
e 15 44
e 23 44
e 27 44
e 33 44
e 42 44
e 1 45
e 13 45
e 19 45
e 27 45
e 32 45
e 42 45
e 2 46
e 4 46
e 5 46
e 7 46
e 14 46
e 26 46
e 35 46
e 36 46
e 44 46
e 5 47
e 21 47
e 24 47
e 27 47
e 28 47
e 38 47
e 43 47
e 4 48
e 13 48
e 14 48
e 17 48
e 18 48
e 19 48
e 30 48
e 32 48
e 33 48
e 34 48
e 38 48
e 42 48
e 43 48
e 4 49
e 5 49
e 6 49
e 9 49
e 14 49
e 18 49
e 20 49
e 35 49
e 1 50
e 7 50
e 8 50
e 9 50
e 16 50
e 17 50
e 22 50
e 38 50
e 42 50
e 45 50
e 47 50
e 2 51
e 7 51
e 14 51
e 16 51
e 18 51
e 26 51
e 28 51
e 32 51
e 35 51
e 36 51
e 45 51
e 11 52
e 13 52
e 14 52
e 17 52
e 19 52
e 20 52
e 26 52
e 34 52
e 35 52
e 39 52
e 45 52
e 46 52
e 51 52
e 3 53
e 15 53
e 17 53
e 20 53
e 23 53
e 24 53
e 33 53
e 38 53
e 43 53
e 44 53
e 45 53
e 48 53
e 51 53
e 1 54
e 2 54
e 5 54
e 11 54
e 14 54
e 18 54
e 26 54
e 28 54
e 32 54
e 39 54
e 40 54
e 41 54
e 43 54
e 50 54
e 53 54
e 2 55
e 5 55
e 10 55
e 13 55
e 15 55
e 16 55
e 17 55
e 18 55
e 20 55
e 27 55
e 33 55
e 36 55
e 37 55
e 42 55
e 51 55
e 52 55
e 1 56
e 14 56
e 17 56
e 19 56
e 33 56
e 34 56
e 39 56
e 47 56
e 48 56
e 49 56
e 8 57
e 10 57
e 11 57
e 12 57
e 13 57
e 19 57
e 23 57
e 28 57
e 30 57
e 34 57
e 36 57
e 40 57
e 45 57
e 46 57
e 48 57
e 51 57
e 53 57
e 8 58
e 11 58
e 17 58
e 23 58
e 24 58
e 27 58
e 33 58
e 40 58
e 41 58
e 45 58
e 52 58
e 1 59
e 3 59
e 9 59
e 12 59
e 19 59
e 24 59
e 26 59
e 29 59
e 31 59
e 33 59
e 35 59
e 37 59
e 38 59
e 42 59
e 55 59
e 56 59
e 1 60
e 8 60
e 11 60
e 13 60
e 15 60
e 21 60
e 23 60
e 29 60
e 37 60
e 41 60
e 47 60
e 56 60
e 1 61
e 10 61
e 24 61
e 29 61
e 36 61
e 39 61
e 41 61
e 47 61
e 54 61
e 59 61
e 60 61
e 13 62
e 14 62
e 17 62
e 27 62
e 44 62
e 46 62
e 49 62
e 50 62
e 4 63
e 13 63
e 18 63
e 20 63
e 29 63
e 37 63
e 45 63
e 49 63
e 54 63
e 11 64
e 22 64
e 23 64
e 26 64
e 28 64
e 30 64
e 41 64
e 45 64
e 46 64
e 48 64
e 52 64
e 56 64
e 10 65
e 15 65
e 18 65
e 22 65
e 24 65
e 27 65
e 28 65
e 29 65
e 36 65
e 39 65
e 41 65
e 42 65
e 52 65
e 60 65
e 64 65
e 1 66
e 4 66
e 8 66
e 9 66
e 14 66
e 17 66
e 44 66
e 45 66
e 47 66
e 55 66
e 60 66
e 63 66
e 64 66
e 3 67
e 6 67
e 11 67
e 19 67
e 33 67
e 38 67
e 42 67
e 5 68
e 12 68
e 14 68
e 18 68
e 22 68
e 26 68
e 34 68
e 35 68
e 45 68
e 47 68
e 50 68
e 57 68
e 60 68
e 61 68
e 67 68
e 8 69
e 11 69
e 14 69
e 25 69
e 28 69
e 31 69
e 36 69
e 53 69
e 54 69
e 56 69
e 64 69
e 65 69
e 67 69
e 5 70
e 9 70
e 10 70
e 11 70
e 15 70
e 27 70
e 28 70
e 32 70
e 51 70
e 52 70
e 53 70
e 58 70
e 64 70
e 66 70
